\Problem name: 

Minimize
obj: -5 x25 -5 x27 -5 x39 -5 x41 -10000 x43 -10000 x45 -10000 x47 -10000 x49 -10000 x51 -10000 x53
 -10000 x55 -10000 x57 -10000 x59 -10000 x61 -10000 x63 -10000 x65 -10000 x67 -10000 x69 -3 x109 -3 x111
 -5 x123 -5 x125 -5 x165 -5 x167 -5 x193 -5 x195 -3 x221 -3 x223 -5 x235 -5 x237
 -5 x263 -5 x265 -3 x305 -3 x307 + 7 x308 + 7 x309 + 7 x310 + 7 x311 + 7 x312 + 7 x313
 + 7 x314 + 7 x315 + 7 x316 + 7 x317 + 7 x318 + 7 x319 + 7 x320 + 7 x321 + 7 x322 + 7 x323
 + 7 x324 + 7 x325 + 7 x326 + 7 x327 + 7 x328 + 7 x329 + 7 x330 + 7 x331 + 7 x332 + 7 x333
 + 7 x334 + 7 x335 + 7 x336 + 7 x337 + 7 x338 + 7 x339 + 7 x340 + 7 x341 + 7 x342 + 7 x343
 + 7 x344 + 7 x345 + 7 x346 + 7 x347 + 7 x348 + 7 x349 + 9 x350 + 9 x351 + 9 x352 + 9 x353
 + 9 x354 + 9 x355 + 9 x356 + 9 x357 + 9 x358 + 9 x359 + 9 x360 + 9 x361 + 9 x362 + 9 x363
 + 9 x364 + 9 x365 + 9 x366 + 9 x367 + 9 x368 + 9 x369 + 5 x370 + 5 x371 + 5 x372 + 5 x373
 + 5 x374 + 5 x375 + 5 x376 + 5 x377 + 5 x378 + 5 x379 + 5 x380 + 5 x381 + 5 x382 + 5 x383
 + 5 x384 + 5 x385 + 5 x386 + 5 x387 + 5 x388 + 5 x389 + 5 x390 + 5 x391 + 5 x392 + 5 x393
 + 5 x394 + 5 x395 + 5 x396 + 5 x397 + 5 x398 + 5 x399 + 5 x400 + 5 x401 + 5 x402 + 5 x403
 + 5 x404 + 5 x405 + 5 x406 + 5 x407 + 5 x408 + 5 x409 + 5 x410 + 5 x411 + 5 x412 + 5 x413
 + 5 x414 + 5 x415 + 5 x416 + 5 x417 + 5 x418 + 5 x419 + 5 x420 + 5 x421 + 5 x422 + 5 x423
 + 5 x424 + 5 x425 + 5 x426 + 5 x427 + 5 x428 + 5 x429 + 5 x430 + 5 x431 + 5 x432 + 5 x433
 + 5 x434 + 5 x435 + 5 x436 + 5 x437 + 5 x438 + 5 x439 + 5 x440 + 5 x441 + 5 x442 + 5 x443
 + 5 x444 + 5 x445 + 5 x446 + 5 x447 + 5 x448 + 5 x449 + 5 x450 + 5 x451 + 5 x452 + 5 x453
 + 5 x454 + 5 x455 + 5 x456 + 5 x457 + 5 x458 + 5 x459 + 5 x460 + 5 x461 + 5 x462 + 5 x463
 + 5 x464 + 5 x465 + 5 x466 + 5 x467 + 5 x468 + 5 x469 + 5 x470 + 5 x471 + 5 x472 + 5 x473
 + 5 x474 + 5 x475 + 5 x476 + 5 x477 + 5 x478 + 5 x479 + 5 x480 + 5 x481 + 5 x482 + 5 x483
 + 5 x484 + 5 x485 + 5 x486 + 5 x487 + 5 x488 + 5 x489 + 5 x490 + 5 x491 + 5 x492 + 5 x493
 + 5 x494 + 5 x495 + 5 x496 + 5 x497 + 5 x498 + 5 x499 + 5 x500 + 5 x501 + 5 x502 + 5 x503
 + 5 x504 + 5 x505 + 5 x506 + 5 x507 + 5 x508 + 5 x509
Subject To
cons0:  x0 + x1 = 1
cons1:  x2 + x3 = 1
cons2:  x4 + x5 = 1
cons3:  x6 + x7 = 1
cons4:  x8 + x9 = 1
cons5:  x10 + x11 = 1
cons6:  x12 + x13 = 1
cons7:  x14 + x15 = 1
cons8:  x16 + x17 = 1
cons9:  x18 + x19 = 1
cons10:  x20 + x21 = 1
cons11:  x22 + x23 = 1
cons12:  x24 + x25 = 1
cons13:  x26 + x27 = 1
cons14:  x28 + x29 = 1
cons15:  x30 + x31 = 1
cons16:  x32 + x33 = 1
cons17:  x34 + x35 = 1
cons18:  x36 + x37 = 1
cons19:  x38 + x39 = 1
cons20:  x40 + x41 = 1
cons21:  x42 + x43 = 1
cons22:  x44 + x45 = 1
cons23:  x46 + x47 = 1
cons24:  x48 + x49 = 1
cons25:  x50 + x51 = 1
cons26:  x52 + x53 = 1
cons27:  x54 + x55 = 1
cons28:  x56 + x57 = 1
cons29:  x58 + x59 = 1
cons30:  x60 + x61 = 1
cons31:  x62 + x63 = 1
cons32:  x64 + x65 = 1
cons33:  x66 + x67 = 1
cons34:  x68 + x69 = 1
cons35:  x70 + x71 = 1
cons36:  x72 + x73 = 1
cons37:  x74 + x75 = 1
cons38:  x76 + x77 = 1
cons39:  x78 + x79 = 1
cons40:  x80 + x81 = 1
cons41:  x82 + x83 = 1
cons42:  x84 + x85 = 1
cons43:  x86 + x87 = 1
cons44:  x88 + x89 = 1
cons45:  x90 + x91 = 1
cons46:  x92 + x93 = 1
cons47:  x94 + x95 = 1
cons48:  x96 + x97 = 1
cons49:  x98 + x99 = 1
cons50:  x100 + x101 = 1
cons51:  x102 + x103 = 1
cons52:  x104 + x105 = 1
cons53:  x106 + x107 = 1
cons54:  x108 + x109 = 1
cons55:  x110 + x111 = 1
cons56:  x112 + x113 = 1
cons57:  x114 + x115 = 1
cons58:  x116 + x117 = 1
cons59:  x118 + x119 = 1
cons60:  x120 + x121 = 1
cons61:  x122 + x123 = 1
cons62:  x124 + x125 = 1
cons63:  x126 + x127 = 1
cons64:  x128 + x129 = 1
cons65:  x130 + x131 = 1
cons66:  x132 + x133 = 1
cons67:  x134 + x135 = 1
cons68:  x136 + x137 = 1
cons69:  x138 + x139 = 1
cons70:  x140 + x141 = 1
cons71:  x142 + x143 = 1
cons72:  x144 + x145 = 1
cons73:  x146 + x147 = 1
cons74:  x148 + x149 = 1
cons75:  x150 + x151 = 1
cons76:  x152 + x153 = 1
cons77:  x154 + x155 = 1
cons78:  x156 + x157 = 1
cons79:  x158 + x159 = 1
cons80:  x160 + x161 = 1
cons81:  x162 + x163 = 1
cons82:  x164 + x165 = 1
cons83:  x166 + x167 = 1
cons84:  x168 + x169 = 1
cons85:  x170 + x171 = 1
cons86:  x172 + x173 = 1
cons87:  x174 + x175 = 1
cons88:  x176 + x177 = 1
cons89:  x178 + x179 = 1
cons90:  x180 + x181 = 1
cons91:  x182 + x183 = 1
cons92:  x184 + x185 = 1
cons93:  x186 + x187 = 1
cons94:  x188 + x189 = 1
cons95:  x190 + x191 = 1
cons96:  x192 + x193 = 1
cons97:  x194 + x195 = 1
cons98:  x196 + x197 = 1
cons99:  x198 + x199 = 1
cons100:  x200 + x201 = 1
cons101:  x202 + x203 = 1
cons102:  x204 + x205 = 1
cons103:  x206 + x207 = 1
cons104:  x208 + x209 = 1
cons105:  x210 + x211 = 1
cons106:  x212 + x213 = 1
cons107:  x214 + x215 = 1
cons108:  x216 + x217 = 1
cons109:  x218 + x219 = 1
cons110:  x220 + x221 = 1
cons111:  x222 + x223 = 1
cons112:  x224 + x225 = 1
cons113:  x226 + x227 = 1
cons114:  x228 + x229 = 1
cons115:  x230 + x231 = 1
cons116:  x232 + x233 = 1
cons117:  x234 + x235 = 1
cons118:  x236 + x237 = 1
cons119:  x238 + x239 = 1
cons120:  x240 + x241 = 1
cons121:  x242 + x243 = 1
cons122:  x244 + x245 = 1
cons123:  x246 + x247 = 1
cons124:  x248 + x249 = 1
cons125:  x250 + x251 = 1
cons126:  x252 + x253 = 1
cons127:  x254 + x255 = 1
cons128:  x256 + x257 = 1
cons129:  x258 + x259 = 1
cons130:  x260 + x261 = 1
cons131:  x262 + x263 = 1
cons132:  x264 + x265 = 1
cons133:  x266 + x267 = 1
cons134:  x268 + x269 = 1
cons135:  x270 + x271 = 1
cons136:  x272 + x273 = 1
cons137:  x274 + x275 = 1
cons138:  x276 + x277 = 1
cons139:  x278 + x279 = 1
cons140:  x280 + x281 = 1
cons141:  x282 + x283 = 1
cons142:  x284 + x285 = 1
cons143:  x286 + x287 = 1
cons144:  x288 + x289 = 1
cons145:  x290 + x291 = 1
cons146:  x292 + x293 = 1
cons147:  x294 + x295 = 1
cons148:  x296 + x297 = 1
cons149:  x298 + x299 = 1
cons150:  x300 + x301 = 1
cons151:  x302 + x303 = 1
cons152:  x304 + x305 = 1
cons153:  x306 + x307 = 1
cons154:  x0 + x28 + x56 + x308 >= 1
cons155:  x14 + x42 + x70 + x309 >= 1
cons156:  x84 + x112 + x310 >= 1
cons157:  x98 + x126 + x311 >= 1
cons158:  x140 + x168 + x196 + x224 + x252 + x280 + x312 >= 2
cons159:  x154 + x182 + x210 + x238 + x266 + x294 + x313 >= 2
cons160:  x2 + x30 + x58 + x314 >= 1
cons161:  x16 + x44 + x72 + x315 >= 1
cons162:  x86 + x114 + x316 >= 1
cons163:  x100 + x128 + x317 >= 1
cons164:  x142 + x170 + x198 + x226 + x254 + x282 + x318 >= 2
cons165:  x156 + x184 + x212 + x240 + x268 + x296 + x319 >= 2
cons166:  x4 + x32 + x60 + x320 >= 1
cons167:  x18 + x46 + x74 + x321 >= 1
cons168:  x88 + x116 + x322 >= 1
cons169:  x102 + x130 + x323 >= 1
cons170:  x144 + x172 + x200 + x228 + x256 + x284 + x324 >= 2
cons171:  x158 + x186 + x214 + x242 + x270 + x298 + x325 >= 2
cons172:  x6 + x34 + x62 + x326 >= 1
cons173:  x20 + x48 + x76 + x327 >= 1
cons174:  x90 + x118 + x328 >= 1
cons175:  x104 + x132 + x329 >= 1
cons176:  x146 + x174 + x202 + x230 + x258 + x286 + x330 >= 2
cons177:  x160 + x188 + x216 + x244 + x272 + x300 + x331 >= 2
cons178:  x8 + x36 + x64 + x332 >= 1
cons179:  x22 + x50 + x78 + x333 >= 1
cons180:  x92 + x120 + x334 >= 1
cons181:  x106 + x134 + x335 >= 1
cons182:  x148 + x176 + x204 + x232 + x260 + x288 + x336 >= 2
cons183:  x162 + x190 + x218 + x246 + x274 + x302 + x337 >= 2
cons184:  x10 + x38 + x66 + x338 >= 1
cons185:  x24 + x52 + x80 + x339 >= 1
cons186:  x94 + x122 + x340 >= 1
cons187:  x108 + x136 + x341 >= 1
cons188:  x150 + x178 + x206 + x234 + x262 + x290 + x342 >= 2
cons189:  x164 + x192 + x220 + x248 + x276 + x304 + x343 >= 2
cons190:  x12 + x40 + x68 + x344 >= 1
cons191:  x26 + x54 + x82 + x345 >= 1
cons192:  x96 + x124 + x346 >= 1
cons193:  x110 + x138 + x347 >= 1
cons194:  x152 + x180 + x208 + x236 + x264 + x292 + x348 >= 2
cons195:  x166 + x194 + x222 + x250 + x278 + x306 + x349 >= 2
cons196:  x0 + x2 + x4 + x6 + x8 + x10 + x12 + x14 + x16 + x18
 + x20 + x22 + x24 + x26 - x350 <= 10
cons197:  x1 + x3 + x5 + x7 + x9 + x11 + x13 + x15 + x17 + x19
 + x21 + x23 + x25 + x27 - x351 <= 4
cons198:  x28 + x30 + x32 + x34 + x36 + x38 + x40 + x42 + x44 + x46
 + x48 + x50 + x52 + x54 - x352 <= 5
cons199:  x112 + x114 + x116 + x118 + x120 + x122 + x124 + x126 + x128 + x130
 + x132 + x134 + x136 + x138 - x353 <= 10
cons200:  x113 + x115 + x117 + x119 + x121 + x123 + x125 + x127 + x129 + x131
 + x133 + x135 + x137 + x139 - x354 <= 4
cons201:  x140 + x142 + x144 + x146 + x148 + x150 + x152 + x154 + x156 + x158
 + x160 + x162 + x164 + x166 - x355 <= 10
cons202:  x141 + x143 + x145 + x147 + x149 + x151 + x153 + x155 + x157 + x159
 + x161 + x163 + x165 + x167 - x356 <= 4
cons203:  x168 + x170 + x172 + x174 + x176 + x178 + x180 + x182 + x184 + x186
 + x188 + x190 + x192 + x194 - x357 <= 10
cons204:  x169 + x171 + x173 + x175 + x177 + x179 + x181 + x183 + x185 + x187
 + x189 + x191 + x193 + x195 - x358 <= 4
cons205:  x224 + x226 + x228 + x230 + x232 + x234 + x236 + x238 + x240 + x242
 + x244 + x246 + x248 + x250 - x359 <= 10
cons206:  x225 + x227 + x229 + x231 + x233 + x235 + x237 + x239 + x241 + x243
 + x245 + x247 + x249 + x251 - x360 <= 4
cons207:  x252 + x254 + x256 + x258 + x260 + x262 + x264 + x266 + x268 + x270
 + x272 + x274 + x276 + x278 - x361 <= 10
cons208:  x253 + x255 + x257 + x259 + x261 + x263 + x265 + x267 + x269 + x271
 + x273 + x275 + x277 + x279 - x362 <= 4
cons209:  x84 + x86 + x88 + x90 + x92 + x94 + x96 + x98 + x100 + x102
 + x104 + x106 + x108 + x110 - x363 <= 6
cons210:  x85 + x87 + x89 + x91 + x93 + x95 + x97 + x99 + x101 + x103
 + x105 + x107 + x109 + x111 - x364 <= 8
cons211:  x196 + x198 + x200 + x202 + x204 + x206 + x208 + x210 + x212 + x214
 + x216 + x218 + x220 + x222 - x365 <= 4
cons212:  x197 + x199 + x201 + x203 + x205 + x207 + x209 + x211 + x213 + x215
 + x217 + x219 + x221 + x223 - x366 <= 10
cons213:  x56 + x58 + x60 + x62 + x64 + x66 + x68 + x70 + x72 + x74
 + x76 + x78 + x80 + x82 - x367 <= 4
cons214:  x280 + x282 + x284 + x286 + x288 + x290 + x292 + x294 + x296 + x298
 + x300 + x302 + x304 + x306 - x368 <= 2
cons215:  x281 + x283 + x285 + x287 + x289 + x291 + x293 + x295 + x297 + x299
 + x301 + x303 + x305 + x307 - x369 <= 12
cons216:  x0 + x28 + x56 - x371 <= 2147483648
cons217:  x0 + x28 + x56 + x370 >= 3
cons218:  x14 + x42 + x70 - x373 <= 2147483648
cons219:  x14 + x42 + x70 + x372 >= 3
cons220:  x84 + x112 - x375 <= 2147483648
cons221:  x84 + x112 + x374 >= 2
cons222:  x98 + x126 - x377 <= 2147483648
cons223:  x98 + x126 + x376 >= 2
cons224:  x2 + x30 + x58 - x379 <= 2147483648
cons225:  x2 + x30 + x58 + x378 >= 3
cons226:  x16 + x44 + x72 - x381 <= 2147483648
cons227:  x16 + x44 + x72 + x380 >= 3
cons228:  x86 + x114 - x383 <= 2147483648
cons229:  x86 + x114 + x382 >= 2
cons230:  x100 + x128 - x385 <= 2147483648
cons231:  x100 + x128 + x384 >= 2
cons232:  x4 + x32 + x60 - x387 <= 2147483648
cons233:  x4 + x32 + x60 + x386 >= 3
cons234:  x18 + x46 + x74 - x389 <= 2147483648
cons235:  x18 + x46 + x74 + x388 >= 3
cons236:  x88 + x116 - x391 <= 2147483648
cons237:  x88 + x116 + x390 >= 2
cons238:  x102 + x130 - x393 <= 2147483648
cons239:  x102 + x130 + x392 >= 2
cons240:  x6 + x34 + x62 - x395 <= 2147483648
cons241:  x6 + x34 + x62 + x394 >= 3
cons242:  x20 + x48 + x76 - x397 <= 2147483648
cons243:  x20 + x48 + x76 + x396 >= 3
cons244:  x90 + x118 - x399 <= 2147483648
cons245:  x90 + x118 + x398 >= 2
cons246:  x104 + x132 - x401 <= 2147483648
cons247:  x104 + x132 + x400 >= 2
cons248:  x8 + x36 + x64 - x403 <= 2147483648
cons249:  x8 + x36 + x64 + x402 >= 3
cons250:  x22 + x50 + x78 - x405 <= 2147483648
cons251:  x22 + x50 + x78 + x404 >= 3
cons252:  x92 + x120 - x407 <= 2147483648
cons253:  x92 + x120 + x406 >= 2
cons254:  x106 + x134 - x409 <= 2147483648
cons255:  x106 + x134 + x408 >= 2
cons256:  x10 + x38 + x66 - x411 <= 2147483648
cons257:  x10 + x38 + x66 + x410 >= 3
cons258:  x24 + x52 + x80 - x413 <= 2147483648
cons259:  x24 + x52 + x80 + x412 >= 3
cons260:  x94 + x122 - x415 <= 2147483648
cons261:  x94 + x122 + x414 >= 2
cons262:  x108 + x136 - x417 <= 2147483648
cons263:  x108 + x136 + x416 >= 2
cons264:  x12 + x40 + x68 - x419 <= 2147483648
cons265:  x12 + x40 + x68 + x418 >= 3
cons266:  x26 + x54 + x82 - x421 <= 2147483648
cons267:  x26 + x54 + x82 + x420 >= 3
cons268:  x96 + x124 - x423 <= 2147483648
cons269:  x96 + x124 + x422 >= 2
cons270:  x110 + x138 - x425 <= 2147483648
cons271:  x110 + x138 + x424 >= 2
cons272:  x14 + x16 + x18 + x20 + x22 + x24 + x26 - x426 <= 5
cons273:  - x1 + x427 <= 0
cons274:  - x3 + x427 <= 0
cons275:  - x5 + x427 <= 0
cons276:  - x1 - x3 - x5 + x427 >= -2
cons277:  - x3 + x428 <= 0
cons278:  - x5 + x428 <= 0
cons279:  - x7 + x428 <= 0
cons280:  - x3 - x5 - x7 + x428 >= -2
cons281:  - x5 + x429 <= 0
cons282:  - x7 + x429 <= 0
cons283:  - x9 + x429 <= 0
cons284:  - x5 - x7 - x9 + x429 >= -2
cons285:  - x7 + x430 <= 0
cons286:  - x9 + x430 <= 0
cons287:  - x11 + x430 <= 0
cons288:  - x7 - x9 - x11 + x430 >= -2
cons289:  - x9 + x431 <= 0
cons290:  - x11 + x431 <= 0
cons291:  - x13 + x431 <= 0
cons292:  - x9 - x11 - x13 + x431 >= -2
cons293:  - x11 + x432 <= 0
cons294:  - x13 + x432 <= 0
cons295:  - x15 + x432 <= 0
cons296:  - x11 - x13 - x15 + x432 >= -2
cons297:  - x13 + x433 <= 0
cons298:  - x15 + x433 <= 0
cons299:  - x17 + x433 <= 0
cons300:  - x13 - x15 - x17 + x433 >= -2
cons301:  - x15 + x434 <= 0
cons302:  - x17 + x434 <= 0
cons303:  - x19 + x434 <= 0
cons304:  - x15 - x17 - x19 + x434 >= -2
cons305:  - x17 + x435 <= 0
cons306:  - x19 + x435 <= 0
cons307:  - x21 + x435 <= 0
cons308:  - x17 - x19 - x21 + x435 >= -2
cons309:  - x19 + x436 <= 0
cons310:  - x21 + x436 <= 0
cons311:  - x23 + x436 <= 0
cons312:  - x19 - x21 - x23 + x436 >= -2
cons313:  - x21 + x437 <= 0
cons314:  - x23 + x437 <= 0
cons315:  - x25 + x437 <= 0
cons316:  - x21 - x23 - x25 + x437 >= -2
cons317:  - x23 + x438 <= 0
cons318:  - x25 + x438 <= 0
cons319:  - x27 + x438 <= 0
cons320:  - x23 - x25 - x27 + x438 >= -2
cons321:  x28 + x30 + x32 + x34 + x36 + x38 + x40 - x439 <= 5
cons322:  - x29 + x440 <= 0
cons323:  - x31 + x440 <= 0
cons324:  - x33 + x440 <= 0
cons325:  - x29 - x31 - x33 + x440 >= -2
cons326:  - x31 + x441 <= 0
cons327:  - x33 + x441 <= 0
cons328:  - x35 + x441 <= 0
cons329:  - x31 - x33 - x35 + x441 >= -2
cons330:  - x33 + x442 <= 0
cons331:  - x35 + x442 <= 0
cons332:  - x37 + x442 <= 0
cons333:  - x33 - x35 - x37 + x442 >= -2
cons334:  - x35 + x443 <= 0
cons335:  - x37 + x443 <= 0
cons336:  - x39 + x443 <= 0
cons337:  - x35 - x37 - x39 + x443 >= -2
cons338:  - x37 + x444 <= 0
cons339:  - x39 + x444 <= 0
cons340:  - x41 + x444 <= 0
cons341:  - x37 - x39 - x41 + x444 >= -2
cons342:  x112 + x114 + x116 + x118 + x120 + x122 + x124 - x445 <= 5
cons343:  - x113 + x446 <= 0
cons344:  - x115 + x446 <= 0
cons345:  - x117 + x446 <= 0
cons346:  - x113 - x115 - x117 + x446 >= -2
cons347:  - x115 + x447 <= 0
cons348:  - x117 + x447 <= 0
cons349:  - x119 + x447 <= 0
cons350:  - x115 - x117 - x119 + x447 >= -2
cons351:  - x117 + x448 <= 0
cons352:  - x119 + x448 <= 0
cons353:  - x121 + x448 <= 0
cons354:  - x117 - x119 - x121 + x448 >= -2
cons355:  - x119 + x449 <= 0
cons356:  - x121 + x449 <= 0
cons357:  - x123 + x449 <= 0
cons358:  - x119 - x121 - x123 + x449 >= -2
cons359:  - x121 + x450 <= 0
cons360:  - x123 + x450 <= 0
cons361:  - x125 + x450 <= 0
cons362:  - x121 - x123 - x125 + x450 >= -2
cons363:  - x123 + x451 <= 0
cons364:  - x125 + x451 <= 0
cons365:  - x127 + x451 <= 0
cons366:  - x123 - x125 - x127 + x451 >= -2
cons367:  - x125 + x452 <= 0
cons368:  - x127 + x452 <= 0
cons369:  - x129 + x452 <= 0
cons370:  - x125 - x127 - x129 + x452 >= -2
cons371:  - x127 + x453 <= 0
cons372:  - x129 + x453 <= 0
cons373:  - x131 + x453 <= 0
cons374:  - x127 - x129 - x131 + x453 >= -2
cons375:  - x129 + x454 <= 0
cons376:  - x131 + x454 <= 0
cons377:  - x133 + x454 <= 0
cons378:  - x129 - x131 - x133 + x454 >= -2
cons379:  - x131 + x455 <= 0
cons380:  - x133 + x455 <= 0
cons381:  - x135 + x455 <= 0
cons382:  - x131 - x133 - x135 + x455 >= -2
cons383:  - x133 + x456 <= 0
cons384:  - x135 + x456 <= 0
cons385:  - x137 + x456 <= 0
cons386:  - x133 - x135 - x137 + x456 >= -2
cons387:  - x135 + x457 <= 0
cons388:  - x137 + x457 <= 0
cons389:  - x139 + x457 <= 0
cons390:  - x135 - x137 - x139 + x457 >= -2
cons391:  x154 + x156 + x158 + x160 + x162 + x164 + x166 - x458 <= 5
cons392:  - x141 + x459 <= 0
cons393:  - x143 + x459 <= 0
cons394:  - x145 + x459 <= 0
cons395:  - x141 - x143 - x145 + x459 >= -2
cons396:  - x143 + x460 <= 0
cons397:  - x145 + x460 <= 0
cons398:  - x147 + x460 <= 0
cons399:  - x143 - x145 - x147 + x460 >= -2
cons400:  - x145 + x461 <= 0
cons401:  - x147 + x461 <= 0
cons402:  - x149 + x461 <= 0
cons403:  - x145 - x147 - x149 + x461 >= -2
cons404:  - x147 + x462 <= 0
cons405:  - x149 + x462 <= 0
cons406:  - x151 + x462 <= 0
cons407:  - x147 - x149 - x151 + x462 >= -2
cons408:  - x149 + x463 <= 0
cons409:  - x151 + x463 <= 0
cons410:  - x153 + x463 <= 0
cons411:  - x149 - x151 - x153 + x463 >= -2
cons412:  - x151 + x464 <= 0
cons413:  - x153 + x464 <= 0
cons414:  - x155 + x464 <= 0
cons415:  - x151 - x153 - x155 + x464 >= -2
cons416:  - x153 + x465 <= 0
cons417:  - x155 + x465 <= 0
cons418:  - x157 + x465 <= 0
cons419:  - x153 - x155 - x157 + x465 >= -2
cons420:  - x155 + x466 <= 0
cons421:  - x157 + x466 <= 0
cons422:  - x159 + x466 <= 0
cons423:  - x155 - x157 - x159 + x466 >= -2
cons424:  - x157 + x467 <= 0
cons425:  - x159 + x467 <= 0
cons426:  - x161 + x467 <= 0
cons427:  - x157 - x159 - x161 + x467 >= -2
cons428:  - x159 + x468 <= 0
cons429:  - x161 + x468 <= 0
cons430:  - x163 + x468 <= 0
cons431:  - x159 - x161 - x163 + x468 >= -2
cons432:  - x161 + x469 <= 0
cons433:  - x163 + x469 <= 0
cons434:  - x165 + x469 <= 0
cons435:  - x161 - x163 - x165 + x469 >= -2
cons436:  - x163 + x470 <= 0
cons437:  - x165 + x470 <= 0
cons438:  - x167 + x470 <= 0
cons439:  - x163 - x165 - x167 + x470 >= -2
cons440:  x182 + x184 + x186 + x188 + x190 + x192 + x194 - x471 <= 5
cons441:  - x169 + x472 <= 0
cons442:  - x171 + x472 <= 0
cons443:  - x173 + x472 <= 0
cons444:  - x169 - x171 - x173 + x472 >= -2
cons445:  - x171 + x473 <= 0
cons446:  - x173 + x473 <= 0
cons447:  - x175 + x473 <= 0
cons448:  - x171 - x173 - x175 + x473 >= -2
cons449:  - x173 + x474 <= 0
cons450:  - x175 + x474 <= 0
cons451:  - x177 + x474 <= 0
cons452:  - x173 - x175 - x177 + x474 >= -2
cons453:  - x175 + x475 <= 0
cons454:  - x177 + x475 <= 0
cons455:  - x179 + x475 <= 0
cons456:  - x175 - x177 - x179 + x475 >= -2
cons457:  - x177 + x476 <= 0
cons458:  - x179 + x476 <= 0
cons459:  - x181 + x476 <= 0
cons460:  - x177 - x179 - x181 + x476 >= -2
cons461:  - x179 + x477 <= 0
cons462:  - x181 + x477 <= 0
cons463:  - x183 + x477 <= 0
cons464:  - x179 - x181 - x183 + x477 >= -2
cons465:  - x181 + x478 <= 0
cons466:  - x183 + x478 <= 0
cons467:  - x185 + x478 <= 0
cons468:  - x181 - x183 - x185 + x478 >= -2
cons469:  - x183 + x479 <= 0
cons470:  - x185 + x479 <= 0
cons471:  - x187 + x479 <= 0
cons472:  - x183 - x185 - x187 + x479 >= -2
cons473:  - x185 + x480 <= 0
cons474:  - x187 + x480 <= 0
cons475:  - x189 + x480 <= 0
cons476:  - x185 - x187 - x189 + x480 >= -2
cons477:  - x187 + x481 <= 0
cons478:  - x189 + x481 <= 0
cons479:  - x191 + x481 <= 0
cons480:  - x187 - x189 - x191 + x481 >= -2
cons481:  - x189 + x482 <= 0
cons482:  - x191 + x482 <= 0
cons483:  - x193 + x482 <= 0
cons484:  - x189 - x191 - x193 + x482 >= -2
cons485:  - x191 + x483 <= 0
cons486:  - x193 + x483 <= 0
cons487:  - x195 + x483 <= 0
cons488:  - x191 - x193 - x195 + x483 >= -2
cons489:  x224 + x226 + x228 + x230 + x232 + x234 + x236 - x484 <= 5
cons490:  - x225 + x485 <= 0
cons491:  - x227 + x485 <= 0
cons492:  - x229 + x485 <= 0
cons493:  - x225 - x227 - x229 + x485 >= -2
cons494:  - x227 + x486 <= 0
cons495:  - x229 + x486 <= 0
cons496:  - x231 + x486 <= 0
cons497:  - x227 - x229 - x231 + x486 >= -2
cons498:  - x229 + x487 <= 0
cons499:  - x231 + x487 <= 0
cons500:  - x233 + x487 <= 0
cons501:  - x229 - x231 - x233 + x487 >= -2
cons502:  - x231 + x488 <= 0
cons503:  - x233 + x488 <= 0
cons504:  - x235 + x488 <= 0
cons505:  - x231 - x233 - x235 + x488 >= -2
cons506:  - x233 + x489 <= 0
cons507:  - x235 + x489 <= 0
cons508:  - x237 + x489 <= 0
cons509:  - x233 - x235 - x237 + x489 >= -2
cons510:  - x235 + x490 <= 0
cons511:  - x237 + x490 <= 0
cons512:  - x239 + x490 <= 0
cons513:  - x235 - x237 - x239 + x490 >= -2
cons514:  - x237 + x491 <= 0
cons515:  - x239 + x491 <= 0
cons516:  - x241 + x491 <= 0
cons517:  - x237 - x239 - x241 + x491 >= -2
cons518:  - x239 + x492 <= 0
cons519:  - x241 + x492 <= 0
cons520:  - x243 + x492 <= 0
cons521:  - x239 - x241 - x243 + x492 >= -2
cons522:  - x241 + x493 <= 0
cons523:  - x243 + x493 <= 0
cons524:  - x245 + x493 <= 0
cons525:  - x241 - x243 - x245 + x493 >= -2
cons526:  - x243 + x494 <= 0
cons527:  - x245 + x494 <= 0
cons528:  - x247 + x494 <= 0
cons529:  - x243 - x245 - x247 + x494 >= -2
cons530:  - x245 + x495 <= 0
cons531:  - x247 + x495 <= 0
cons532:  - x249 + x495 <= 0
cons533:  - x245 - x247 - x249 + x495 >= -2
cons534:  - x247 + x496 <= 0
cons535:  - x249 + x496 <= 0
cons536:  - x251 + x496 <= 0
cons537:  - x247 - x249 - x251 + x496 >= -2
cons538:  x252 + x254 + x256 + x258 + x260 + x262 + x264 - x497 <= 5
cons539:  - x253 + x498 <= 0
cons540:  - x255 + x498 <= 0
cons541:  - x257 + x498 <= 0
cons542:  - x253 - x255 - x257 + x498 >= -2
cons543:  - x255 + x499 <= 0
cons544:  - x257 + x499 <= 0
cons545:  - x259 + x499 <= 0
cons546:  - x255 - x257 - x259 + x499 >= -2
cons547:  - x257 + x500 <= 0
cons548:  - x259 + x500 <= 0
cons549:  - x261 + x500 <= 0
cons550:  - x257 - x259 - x261 + x500 >= -2
cons551:  - x259 + x501 <= 0
cons552:  - x261 + x501 <= 0
cons553:  - x263 + x501 <= 0
cons554:  - x259 - x261 - x263 + x501 >= -2
cons555:  - x261 + x502 <= 0
cons556:  - x263 + x502 <= 0
cons557:  - x265 + x502 <= 0
cons558:  - x261 - x263 - x265 + x502 >= -2
cons559:  - x263 + x503 <= 0
cons560:  - x265 + x503 <= 0
cons561:  - x267 + x503 <= 0
cons562:  - x263 - x265 - x267 + x503 >= -2
cons563:  - x265 + x504 <= 0
cons564:  - x267 + x504 <= 0
cons565:  - x269 + x504 <= 0
cons566:  - x265 - x267 - x269 + x504 >= -2
cons567:  - x267 + x505 <= 0
cons568:  - x269 + x505 <= 0
cons569:  - x271 + x505 <= 0
cons570:  - x267 - x269 - x271 + x505 >= -2
cons571:  - x269 + x506 <= 0
cons572:  - x271 + x506 <= 0
cons573:  - x273 + x506 <= 0
cons574:  - x269 - x271 - x273 + x506 >= -2
cons575:  - x271 + x507 <= 0
cons576:  - x273 + x507 <= 0
cons577:  - x275 + x507 <= 0
cons578:  - x271 - x273 - x275 + x507 >= -2
cons579:  - x273 + x508 <= 0
cons580:  - x275 + x508 <= 0
cons581:  - x277 + x508 <= 0
cons582:  - x273 - x275 - x277 + x508 >= -2
cons583:  - x275 + x509 <= 0
cons584:  - x277 + x509 <= 0
cons585:  - x279 + x509 <= 0
cons586:  - x275 - x277 - x279 + x509 >= -2
Bounds
 0 <= x0 <= 1
 0 <= x1 <= 1
 0 <= x2 <= 1
 0 <= x3 <= 1
 0 <= x4 <= 1
 0 <= x5 <= 1
 0 <= x6 <= 1
 0 <= x7 <= 1
 0 <= x8 <= 1
 0 <= x9 <= 1
 0 <= x10 <= 1
 0 <= x11 <= 1
 0 <= x12 <= 1
 0 <= x13 <= 1
 0 <= x14 <= 1
 0 <= x15 <= 1
 0 <= x16 <= 1
 0 <= x17 <= 1
 0 <= x18 <= 1
 0 <= x19 <= 1
 0 <= x20 <= 1
 0 <= x21 <= 1
 0 <= x22 <= 1
 0 <= x23 <= 1
 0 <= x24 <= 1
 0 <= x25 <= 1
 0 <= x26 <= 1
 0 <= x27 <= 1
 0 <= x28 <= 1
 0 <= x29 <= 1
 0 <= x30 <= 1
 0 <= x31 <= 1
 0 <= x32 <= 1
 0 <= x33 <= 1
 0 <= x34 <= 1
 0 <= x35 <= 1
 0 <= x36 <= 1
 0 <= x37 <= 1
 0 <= x38 <= 1
 0 <= x39 <= 1
 0 <= x40 <= 1
 0 <= x41 <= 1
 0 <= x42 <= 1
 0 <= x43 <= 1
 0 <= x44 <= 1
 0 <= x45 <= 1
 0 <= x46 <= 1
 0 <= x47 <= 1
 0 <= x48 <= 1
 0 <= x49 <= 1
 0 <= x50 <= 1
 0 <= x51 <= 1
 0 <= x52 <= 1
 0 <= x53 <= 1
 0 <= x54 <= 1
 0 <= x55 <= 1
 0 <= x56 <= 1
 0 <= x57 <= 1
 0 <= x58 <= 1
 0 <= x59 <= 1
 0 <= x60 <= 1
 0 <= x61 <= 1
 0 <= x62 <= 1
 0 <= x63 <= 1
 0 <= x64 <= 1
 0 <= x65 <= 1
 0 <= x66 <= 1
 0 <= x67 <= 1
 0 <= x68 <= 1
 0 <= x69 <= 1
 0 <= x70 <= 1
 0 <= x71 <= 1
 0 <= x72 <= 1
 0 <= x73 <= 1
 0 <= x74 <= 1
 0 <= x75 <= 1
 0 <= x76 <= 1
 0 <= x77 <= 1
 0 <= x78 <= 1
 0 <= x79 <= 1
 0 <= x80 <= 1
 0 <= x81 <= 1
 0 <= x82 <= 1
 0 <= x83 <= 1
 0 <= x84 <= 1
 0 <= x85 <= 1
 0 <= x86 <= 1
 0 <= x87 <= 1
 0 <= x88 <= 1
 0 <= x89 <= 1
 0 <= x90 <= 1
 0 <= x91 <= 1
 0 <= x92 <= 1
 0 <= x93 <= 1
 0 <= x94 <= 1
 0 <= x95 <= 1
 0 <= x96 <= 1
 0 <= x97 <= 1
 0 <= x98 <= 1
 0 <= x99 <= 1
 0 <= x100 <= 1
 0 <= x101 <= 1
 0 <= x102 <= 1
 0 <= x103 <= 1
 0 <= x104 <= 1
 0 <= x105 <= 1
 0 <= x106 <= 1
 0 <= x107 <= 1
 0 <= x108 <= 1
 0 <= x109 <= 1
 0 <= x110 <= 1
 0 <= x111 <= 1
 0 <= x112 <= 1
 0 <= x113 <= 1
 0 <= x114 <= 1
 0 <= x115 <= 1
 0 <= x116 <= 1
 0 <= x117 <= 1
 0 <= x118 <= 1
 0 <= x119 <= 1
 0 <= x120 <= 1
 0 <= x121 <= 1
 0 <= x122 <= 1
 0 <= x123 <= 1
 0 <= x124 <= 1
 0 <= x125 <= 1
 0 <= x126 <= 1
 0 <= x127 <= 1
 0 <= x128 <= 1
 0 <= x129 <= 1
 0 <= x130 <= 1
 0 <= x131 <= 1
 0 <= x132 <= 1
 0 <= x133 <= 1
 0 <= x134 <= 1
 0 <= x135 <= 1
 0 <= x136 <= 1
 0 <= x137 <= 1
 0 <= x138 <= 1
 0 <= x139 <= 1
 0 <= x140 <= 1
 0 <= x141 <= 1
 0 <= x142 <= 1
 0 <= x143 <= 1
 0 <= x144 <= 1
 0 <= x145 <= 1
 0 <= x146 <= 1
 0 <= x147 <= 1
 0 <= x148 <= 1
 0 <= x149 <= 1
 0 <= x150 <= 1
 0 <= x151 <= 1
 0 <= x152 <= 1
 0 <= x153 <= 1
 0 <= x154 <= 1
 0 <= x155 <= 1
 0 <= x156 <= 1
 0 <= x157 <= 1
 0 <= x158 <= 1
 0 <= x159 <= 1
 0 <= x160 <= 1
 0 <= x161 <= 1
 0 <= x162 <= 1
 0 <= x163 <= 1
 0 <= x164 <= 1
 0 <= x165 <= 1
 0 <= x166 <= 1
 0 <= x167 <= 1
 0 <= x168 <= 1
 0 <= x169 <= 1
 0 <= x170 <= 1
 0 <= x171 <= 1
 0 <= x172 <= 1
 0 <= x173 <= 1
 0 <= x174 <= 1
 0 <= x175 <= 1
 0 <= x176 <= 1
 0 <= x177 <= 1
 0 <= x178 <= 1
 0 <= x179 <= 1
 0 <= x180 <= 1
 0 <= x181 <= 1
 0 <= x182 <= 1
 0 <= x183 <= 1
 0 <= x184 <= 1
 0 <= x185 <= 1
 0 <= x186 <= 1
 0 <= x187 <= 1
 0 <= x188 <= 1
 0 <= x189 <= 1
 0 <= x190 <= 1
 0 <= x191 <= 1
 0 <= x192 <= 1
 0 <= x193 <= 1
 0 <= x194 <= 1
 0 <= x195 <= 1
 0 <= x196 <= 1
 0 <= x197 <= 1
 0 <= x198 <= 1
 0 <= x199 <= 1
 0 <= x200 <= 1
 0 <= x201 <= 1
 0 <= x202 <= 1
 0 <= x203 <= 1
 0 <= x204 <= 1
 0 <= x205 <= 1
 0 <= x206 <= 1
 0 <= x207 <= 1
 0 <= x208 <= 1
 0 <= x209 <= 1
 0 <= x210 <= 1
 0 <= x211 <= 1
 0 <= x212 <= 1
 0 <= x213 <= 1
 0 <= x214 <= 1
 0 <= x215 <= 1
 0 <= x216 <= 1
 0 <= x217 <= 1
 0 <= x218 <= 1
 0 <= x219 <= 1
 0 <= x220 <= 1
 0 <= x221 <= 1
 0 <= x222 <= 1
 0 <= x223 <= 1
 0 <= x224 <= 1
 0 <= x225 <= 1
 0 <= x226 <= 1
 0 <= x227 <= 1
 0 <= x228 <= 1
 0 <= x229 <= 1
 0 <= x230 <= 1
 0 <= x231 <= 1
 0 <= x232 <= 1
 0 <= x233 <= 1
 0 <= x234 <= 1
 0 <= x235 <= 1
 0 <= x236 <= 1
 0 <= x237 <= 1
 0 <= x238 <= 1
 0 <= x239 <= 1
 0 <= x240 <= 1
 0 <= x241 <= 1
 0 <= x242 <= 1
 0 <= x243 <= 1
 0 <= x244 <= 1
 0 <= x245 <= 1
 0 <= x246 <= 1
 0 <= x247 <= 1
 0 <= x248 <= 1
 0 <= x249 <= 1
 0 <= x250 <= 1
 0 <= x251 <= 1
 0 <= x252 <= 1
 0 <= x253 <= 1
 0 <= x254 <= 1
 0 <= x255 <= 1
 0 <= x256 <= 1
 0 <= x257 <= 1
 0 <= x258 <= 1
 0 <= x259 <= 1
 0 <= x260 <= 1
 0 <= x261 <= 1
 0 <= x262 <= 1
 0 <= x263 <= 1
 0 <= x264 <= 1
 0 <= x265 <= 1
 0 <= x266 <= 1
 0 <= x267 <= 1
 0 <= x268 <= 1
 0 <= x269 <= 1
 0 <= x270 <= 1
 0 <= x271 <= 1
 0 <= x272 <= 1
 0 <= x273 <= 1
 0 <= x274 <= 1
 0 <= x275 <= 1
 0 <= x276 <= 1
 0 <= x277 <= 1
 0 <= x278 <= 1
 0 <= x279 <= 1
 0 <= x280 <= 1
 0 <= x281 <= 1
 0 <= x282 <= 1
 0 <= x283 <= 1
 0 <= x284 <= 1
 0 <= x285 <= 1
 0 <= x286 <= 1
 0 <= x287 <= 1
 0 <= x288 <= 1
 0 <= x289 <= 1
 0 <= x290 <= 1
 0 <= x291 <= 1
 0 <= x292 <= 1
 0 <= x293 <= 1
 0 <= x294 <= 1
 0 <= x295 <= 1
 0 <= x296 <= 1
 0 <= x297 <= 1
 0 <= x298 <= 1
 0 <= x299 <= 1
 0 <= x300 <= 1
 0 <= x301 <= 1
 0 <= x302 <= 1
 0 <= x303 <= 1
 0 <= x304 <= 1
 0 <= x305 <= 1
 0 <= x306 <= 1
 0 <= x307 <= 1
 0 <= x427 <= 1
 0 <= x428 <= 1
 0 <= x429 <= 1
 0 <= x430 <= 1
 0 <= x431 <= 1
 0 <= x432 <= 1
 0 <= x433 <= 1
 0 <= x434 <= 1
 0 <= x435 <= 1
 0 <= x436 <= 1
 0 <= x437 <= 1
 0 <= x438 <= 1
 0 <= x440 <= 1
 0 <= x441 <= 1
 0 <= x442 <= 1
 0 <= x443 <= 1
 0 <= x444 <= 1
 0 <= x446 <= 1
 0 <= x447 <= 1
 0 <= x448 <= 1
 0 <= x449 <= 1
 0 <= x450 <= 1
 0 <= x451 <= 1
 0 <= x452 <= 1
 0 <= x453 <= 1
 0 <= x454 <= 1
 0 <= x455 <= 1
 0 <= x456 <= 1
 0 <= x457 <= 1
 0 <= x459 <= 1
 0 <= x460 <= 1
 0 <= x461 <= 1
 0 <= x462 <= 1
 0 <= x463 <= 1
 0 <= x464 <= 1
 0 <= x465 <= 1
 0 <= x466 <= 1
 0 <= x467 <= 1
 0 <= x468 <= 1
 0 <= x469 <= 1
 0 <= x470 <= 1
 0 <= x472 <= 1
 0 <= x473 <= 1
 0 <= x474 <= 1
 0 <= x475 <= 1
 0 <= x476 <= 1
 0 <= x477 <= 1
 0 <= x478 <= 1
 0 <= x479 <= 1
 0 <= x480 <= 1
 0 <= x481 <= 1
 0 <= x482 <= 1
 0 <= x483 <= 1
 0 <= x485 <= 1
 0 <= x486 <= 1
 0 <= x487 <= 1
 0 <= x488 <= 1
 0 <= x489 <= 1
 0 <= x490 <= 1
 0 <= x491 <= 1
 0 <= x492 <= 1
 0 <= x493 <= 1
 0 <= x494 <= 1
 0 <= x495 <= 1
 0 <= x496 <= 1
 0 <= x498 <= 1
 0 <= x499 <= 1
 0 <= x500 <= 1
 0 <= x501 <= 1
 0 <= x502 <= 1
 0 <= x503 <= 1
 0 <= x504 <= 1
 0 <= x505 <= 1
 0 <= x506 <= 1
 0 <= x507 <= 1
 0 <= x508 <= 1
 0 <= x509 <= 1
Integers
x0 x1 x2 x3 x4 x5 x6 x7 x8 x9 
x10 x11 x12 x13 x14 x15 x16 x17 x18 x19 
x20 x21 x22 x23 x24 x25 x26 x27 x28 x29 
x30 x31 x32 x33 x34 x35 x36 x37 x38 x39 
x40 x41 x42 x43 x44 x45 x46 x47 x48 x49 
x50 x51 x52 x53 x54 x55 x56 x57 x58 x59 
x60 x61 x62 x63 x64 x65 x66 x67 x68 x69 
x70 x71 x72 x73 x74 x75 x76 x77 x78 x79 
x80 x81 x82 x83 x84 x85 x86 x87 x88 x89 
x90 x91 x92 x93 x94 x95 x96 x97 x98 x99 
x100 x101 x102 x103 x104 x105 x106 x107 x108 x109 
x110 x111 x112 x113 x114 x115 x116 x117 x118 x119 
x120 x121 x122 x123 x124 x125 x126 x127 x128 x129 
x130 x131 x132 x133 x134 x135 x136 x137 x138 x139 
x140 x141 x142 x143 x144 x145 x146 x147 x148 x149 
x150 x151 x152 x153 x154 x155 x156 x157 x158 x159 
x160 x161 x162 x163 x164 x165 x166 x167 x168 x169 
x170 x171 x172 x173 x174 x175 x176 x177 x178 x179 
x180 x181 x182 x183 x184 x185 x186 x187 x188 x189 
x190 x191 x192 x193 x194 x195 x196 x197 x198 x199 
x200 x201 x202 x203 x204 x205 x206 x207 x208 x209 
x210 x211 x212 x213 x214 x215 x216 x217 x218 x219 
x220 x221 x222 x223 x224 x225 x226 x227 x228 x229 
x230 x231 x232 x233 x234 x235 x236 x237 x238 x239 
x240 x241 x242 x243 x244 x245 x246 x247 x248 x249 
x250 x251 x252 x253 x254 x255 x256 x257 x258 x259 
x260 x261 x262 x263 x264 x265 x266 x267 x268 x269 
x270 x271 x272 x273 x274 x275 x276 x277 x278 x279 
x280 x281 x282 x283 x284 x285 x286 x287 x288 x289 
x290 x291 x292 x293 x294 x295 x296 x297 x298 x299 
x300 x301 x302 x303 x304 x305 x306 x307 x427 x428 
x429 x430 x431 x432 x433 x434 x435 x436 x437 x438 
x440 x441 x442 x443 x444 x446 x447 x448 x449 x450 
x451 x452 x453 x454 x455 x456 x457 x459 x460 x461 
x462 x463 x464 x465 x466 x467 x468 x469 x470 x472 
x473 x474 x475 x476 x477 x478 x479 x480 x481 x482 
x483 x485 x486 x487 x488 x489 x490 x491 x492 x493 
x494 x495 x496 x498 x499 x500 x501 x502 x503 x504 
x505 x506 x507 x508 x509 
End
